NAME 
ROWS
 N  OBJ
 L  R0      
 E  R1      
 E  R2      
 E  R3      
 E  R4      
 E  R5      
 E  R6      
 E  R7      
 E  R8      
 E  R9      
 E  R10     
 E  R11     
 E  R12     
 E  R13     
 E  R14     
 E  R15     
 E  R16     
 E  R17     
 E  R18     
 E  R19     
 E  R20     
 E  R21     
 E  R22     
 E  R23     
 E  R24     
 E  R25     
 E  R26     
 E  R27     
 E  R28     
 E  R29     
 E  R30     
COLUMNS
    MARKER    'MARKER'                 'INTORG'
    I0(3)     OBJ       162
    I0(3)     R0        -167
    I0(3)     R1        3
    I0(3)     R30       1
    I1(3)     OBJ       -48
    I1(3)     R0        179
    I1(3)     R2        15
    I1(3)     R30       1
    I2(3)     OBJ       49
    I2(3)     R0        135
    I2(3)     R3        17
    I2(3)     R30       1
    I3(3)     OBJ       -69
    I3(3)     R0        -24
    I3(3)     R4        -1
    I3(3)     R30       1
    I4(3)     OBJ       56
    I4(3)     R0        93
    I4(3)     R5        15
    I4(3)     R30       1
    I5(3)     OBJ       77
    I5(3)     R0        -180
    I5(3)     R6        16
    I5(3)     R30       1
    I6(3)     OBJ       -53
    I6(3)     R0        150
    I6(3)     R7        3
    I6(3)     R30       1
    I7(3)     OBJ       2
    I7(3)     R0        -151
    I7(3)     R8        15
    I7(3)     R30       1
    I8(3)     OBJ       163
    I8(3)     R0        183
    I8(3)     R9        3
    I8(3)     R30       1
    I9(3)     OBJ       -31
    I9(3)     R0        6
    I9(3)     R10       7
    I9(3)     R30       1
    I10(3)    OBJ       -62
    I10(3)    R0        -172
    I10(3)    R11       15
    I10(3)    R30       1
    I11(3)    OBJ       -81
    I11(3)    R0        175
    I11(3)    R12       14
    I11(3)    R30       1
    I12(3)    OBJ       -52
    I12(3)    R0        -146
    I12(3)    R13       9
    I12(3)    R30       1
    I13(3)    OBJ       -107
    I13(3)    R0        -200
    I13(3)    R14       11
    I13(3)    R30       1
    I14(3)    OBJ       198
    I14(3)    R0        -8
    I14(3)    R15       11
    I14(3)    R30       1
    I15(3)    OBJ       -174
    I15(3)    R0        74
    I15(3)    R16       1
    I15(3)    R30       1
    I16(2)    OBJ       137
    I16(2)    R0        172
    I16(2)    R30       1
    I17(3)    OBJ       -50
    I17(3)    R0        -35
    I17(3)    R18       17
    I17(3)    R30       1
    I18(3)    OBJ       122
    I18(3)    R0        -16
    I18(3)    R19       17
    I18(3)    R30       1
    I19(3)    OBJ       58
    I19(3)    R0        -35
    I19(3)    R20       19
    I19(3)    R30       1
    I20(3)    OBJ       116
    I20(3)    R0        53
    I20(3)    R21       6
    I20(3)    R30       1
    I21(3)    OBJ       -71
    I21(3)    R0        -26
    I21(3)    R22       -1
    I21(3)    R30       1
    I22(3)    OBJ       146
    I22(3)    R0        -167
    I22(3)    R23       7
    I22(3)    R30       1
    I23(3)    OBJ       -131
    I23(3)    R0        -87
    I23(3)    R24       13
    I23(3)    R30       1
    I24(3)    OBJ       160
    I24(3)    R0        -199
    I24(3)    R25       3
    I24(3)    R30       1
    I25(3)    OBJ       -90
    I25(3)    R0        141
    I25(3)    R26       4
    I25(3)    R30       1
    I26(3)    OBJ       -103
    I26(3)    R0        -83
    I26(3)    R27       9
    I26(3)    R30       1
    I27(3)    OBJ       -94
    I27(3)    R0        175
    I27(3)    R28       -1
    I27(3)    R30       1
    MARKER    'MARKER'                 'INTEND'
    C28(27)   OBJ       -3
    C28(27)   R1        2
    C28(27)   R2        -1
    C28(27)   R3        17
    C28(27)   R4        12
    C28(27)   R6        17
    C28(27)   R7        7
    C28(27)   R8        9
    C28(27)   R9        16
    C28(27)   R10       6
    C28(27)   R11       8
    C28(27)   R12       10
    C28(27)   R13       15
    C28(27)   R14       3
    C28(27)   R15       18
    C28(27)   R16       6
    C28(27)   R17       2
    C28(27)   R18       19
    C28(27)   R19       1
    C28(27)   R20       16
    C28(27)   R22       15
    C28(27)   R23       19
    C28(27)   R24       11
    C28(27)   R25       8
    C28(27)   R26       19
    C28(27)   R27       16
    C28(27)   R28       12
    C28(27)   R29       6
    C29(28)   OBJ       1
    C29(28)   R0        1
    C29(28)   R1        15
    C29(28)   R2        15
    C29(28)   R3        10
    C29(28)   R4        4
    C29(28)   R5        19
    C29(28)   R6        1
    C29(28)   R7        11
    C29(28)   R8        15
    C29(28)   R9        16
    C29(28)   R10       -1
    C29(28)   R12       19
    C29(28)   R13       15
    C29(28)   R14       11
    C29(28)   R15       15
    C29(28)   R16       17
    C29(28)   R17       12
    C29(28)   R19       2
    C29(28)   R20       10
    C29(28)   R21       10
    C29(28)   R22       10
    C29(28)   R23       7
    C29(28)   R24       18
    C29(28)   R25       17
    C29(28)   R26       8
    C29(28)   R27       8
    C29(28)   R28       11
    C29(28)   R29       3
    C30(1)    R1        1
    C31(1)    R2        1
    C32(1)    R3        1
    C33(1)    R4        1
    C34(1)    R5        1
    C35(1)    R6        1
    C36(1)    R7        1
    C37(1)    R8        1
    C38(1)    R9        1
    C39(1)    R10       1
    C40(1)    R11       1
    C41(1)    R12       1
    C42(1)    R13       1
    C43(1)    R14       1
    C44(1)    R15       1
    C45(1)    R16       1
    C46(1)    R17       1
    C47(1)    R18       1
    C48(1)    R19       1
    C49(1)    R20       1
    C50(1)    R21       1
    C51(1)    R22       1
    C52(1)    R23       1
    C53(1)    R24       1
    C54(1)    R25       1
    C55(1)    R26       1
    C56(1)    R27       1
    C57(1)    R28       1
    C58(1)    R29       1
    C59(1)    R30       1
RHS
    RHS1      R0        145
    RHS1      R1        92
    RHS1      R2        58
    RHS1      R3        76
    RHS1      R4        74
    RHS1      R5        70
    RHS1      R6        94
    RHS1      R7        80
    RHS1      R8        67
    RHS1      R9        82
    RHS1      R10       72
    RHS1      R11       89
    RHS1      R12       81
    RHS1      R13       82
    RHS1      R14       73
    RHS1      R15       74
    RHS1      R16       83
    RHS1      R17       71
    RHS1      R18       76
    RHS1      R19       65
    RHS1      R20       78
    RHS1      R21       61
    RHS1      R22       91
    RHS1      R23       67
    RHS1      R24       57
    RHS1      R25       63
    RHS1      R26       81
    RHS1      R27       54
    RHS1      R28       80
    RHS1      R29       91
    RHS1      R30       9
BOUNDS
 UP BND1      I0(3)     1
 UP BND1      I1(3)     1
 UP BND1      I2(3)     1
 UP BND1      I3(3)     1
 UP BND1      I4(3)     1
 UP BND1      I5(3)     1
 UP BND1      I6(3)     1
 UP BND1      I7(3)     1
 UP BND1      I8(3)     1
 UP BND1      I9(3)     1
 UP BND1      I10(3)    1
 UP BND1      I11(3)    1
 UP BND1      I12(3)    1
 UP BND1      I13(3)    1
 UP BND1      I14(3)    1
 UP BND1      I15(3)    1
 UP BND1      I16(2)    1
 UP BND1      I17(3)    1
 UP BND1      I18(3)    1
 UP BND1      I19(3)    1
 UP BND1      I20(3)    1
 UP BND1      I21(3)    1
 UP BND1      I22(3)    1
 UP BND1      I23(3)    1
 UP BND1      I24(3)    1
 UP BND1      I25(3)    1
 UP BND1      I26(3)    1
 UP BND1      I27(3)    1
ENDATA
